SDVRP instances/custom_instances/p02_8_split0.vrp
NAME:p02_8_split
BEST_KNOWN: 0
COMMENT: 0
DIMENSION: 376
CAPACITY: 140
EDGE_WEIGHT_FORMAT: FUNCTION
EDGE_WEIGHT_TYPE: EXACT_2D
NODE_COORD_SECTION
1 0.00000 0.00000
2 -46 -10
3 -46 -10
4 -46 -10
5 -46 -10
6 3 50
7 3 50
8 3 50
9 3 50
10 3 50
11 3 50
12 3 50
13 46 33
14 46 33
15 46 33
16 -27 48
17 -27 48
18 -27 48
19 -38 -34
20 -38 -34
21 -38 -34
22 -38 -34
23 -38 -34
24 19 45
25 19 45
26 19 45
27 19 45
28 19 45
29 19 45
30 -15 -11
31 -15 -11
32 -15 -11
33 0 26
34 0 26
35 18 3
36 18 3
37 18 3
38 18 3
39 18 26
40 18 26
41 18 26
42 -17 9
43 -17 9
44 -17 9
45 -17 9
46 -17 9
47 -17 9
48 -34 -3
49 -34 -3
50 -34 -3
51 41 -9
52 41 -9
53 41 -9
54 41 -9
55 41 -9
56 46 -32
57 46 -32
58 46 -32
59 -33 -26
60 -33 -26
61 -33 -26
62 -33 -26
63 39 11
64 39 11
65 39 11
66 39 11
67 -11 -40
68 -11 -40
69 -11 -40
70 -11 -40
71 -11 -40
72 -11 -40
73 -11 -40
74 -11 -40
75 -28 27
76 -28 27
77 -28 27
78 -28 27
79 -28 27
80 -12 7
81 -12 7
82 -12 7
83 41 39
84 41 39
85 41 39
86 41 39
87 41 39
88 41 39
89 -9 37
90 -9 37
91 -9 37
92 -9 37
93 -20 49
94 -20 49
95 -20 49
96 -20 49
97 -20 49
98 -23 38
99 -23 38
100 -23 38
101 -23 38
102 -23 38
103 -48 48
104 -48 48
105 -48 48
106 -48 48
107 -48 48
108 -48 48
109 -48 48
110 -48 48
111 -48 48
112 -47 31
113 27 46
114 27 46
115 27 46
116 5 49
117 5 49
118 5 49
119 13 -6
120 13 -6
121 13 -6
122 13 -6
123 13 -6
124 21 -11
125 21 -11
126 21 -11
127 21 -11
128 21 -11
129 21 -11
130 -46 41
131 -46 41
132 -46 41
133 -46 41
134 -46 41
135 -46 41
136 -22 -29
137 -22 -29
138 -22 -29
139 -43 -31
140 -43 -31
141 -43 -31
142 -43 -31
143 -43 -31
144 -43 -31
145 -43 -31
146 -36 -18
147 -36 -18
148 -36 -18
149 45 -14
150 45 -14
151 45 -14
152 45 -14
153 45 -14
154 45 -14
155 45 -14
156 45 -14
157 45 -14
158 42 -18
159 42 -18
160 -20 35
161 -20 35
162 -20 35
163 -20 35
164 -20 35
165 16 37
166 16 37
167 16 37
168 16 37
169 16 37
170 16 37
171 16 37
172 16 37
173 -42 43
174 -42 43
175 -42 43
176 -42 43
177 -42 43
178 -42 43
179 -40 -4
180 -40 -4
181 -40 -4
182 -40 -4
183 -40 -4
184 -40 -4
185 35 -46
186 35 -46
187 35 -46
188 35 -46
189 48 39
190 48 39
191 48 39
192 48 39
193 12 -1
194 12 -1
195 12 -1
196 12 -1
197 34 7
198 34 7
199 34 7
200 -13 -36
201 -13 -36
202 -13 -36
203 -13 -36
204 -13 -36
205 25 12
206 25 12
207 25 12
208 25 12
209 25 12
210 -15 -28
211 -15 -28
212 -15 -28
213 2 -39
214 2 -39
215 2 -39
216 2 -39
217 2 -39
218 2 -39
219 -22 -2
220 -22 -2
221 -22 -2
222 -22 -2
223 -22 -2
224 -22 -2
225 -22 -2
226 -21 32
227 -21 32
228 -21 32
229 -5 28
230 -5 28
231 -5 28
232 -5 28
233 -5 28
234 -44 -29
235 -44 -29
236 -44 -29
237 -44 -29
238 -44 -29
239 5 13
240 5 13
241 5 13
242 12 -25
243 12 -25
244 12 -25
245 12 -25
246 12 -25
247 12 -25
248 12 -25
249 19 -28
250 19 -28
251 19 -28
252 19 -28
253 19 -28
254 19 -28
255 19 -28
256 19 -28
257 -39 -10
258 -39 -10
259 -39 -10
260 -39 -10
261 -39 -10
262 -39 -10
263 -39 -10
264 -39 -10
265 -27 -15
266 -27 -15
267 -27 -15
268 -27 -15
269 -27 -15
270 -27 -15
271 -27 -15
272 -27 -15
273 39 46
274 39 46
275 -32 11
276 -32 11
277 -32 11
278 -32 11
279 -32 11
280 -32 11
281 -32 11
282 -32 11
283 -32 50
284 -32 50
285 -32 50
286 -32 50
287 -32 50
288 -32 50
289 -32 50
290 -32 50
291 4 44
292 4 44
293 4 44
294 4 44
295 4 44
296 4 44
297 4 44
298 -30 10
299 -30 10
300 -30 10
301 -30 10
302 -30 10
303 30 -48
304 30 -48
305 30 -48
306 30 -48
307 30 -48
308 30 -48
309 22 4
310 22 4
311 22 4
312 22 4
313 -18 -10
314 -18 -10
315 -18 -10
316 -18 -10
317 41 13
318 41 13
319 41 13
320 41 13
321 41 13
322 41 13
323 41 13
324 41 13
325 -18 6
326 -18 6
327 -18 6
328 -18 6
329 -18 6
330 -18 6
331 0 26
332 0 26
333 0 26
334 0 26
335 0 26
336 0 26
337 0 26
338 -5 -48
339 -5 -48
340 -5 -48
341 -5 -48
342 -5 -48
343 -5 -48
344 6 23
345 6 23
346 6 23
347 -47 33
348 -47 33
349 -47 33
350 -47 33
351 -4 41
352 -4 41
353 -4 41
354 -4 41
355 -4 41
356 -4 41
357 -4 41
358 7 13
359 7 13
360 -40 48
361 -40 48
362 -40 48
363 -40 48
364 -40 48
365 44 30
366 44 30
367 44 30
368 44 30
369 44 30
370 44 30
371 -14 -50
372 -14 -50
373 -14 -50
374 -14 -50
375 -14 -50
376 -14 -50
DEMAND_SECTION
1 0
2 28
3 1
4 1
5 1
6 14
7 7
8 1
9 1
10 1
11 1
12 1
13 14
14 7
15 1
16 28
17 28
18 14
19 28
20 1
21 1
22 1
23 1
24 28
25 14
26 1
27 1
28 1
29 1
30 28
31 7
32 1
33 28
34 28
35 28
36 28
37 1
38 1
39 28
40 28
41 1
42 28
43 14
44 1
45 1
46 1
47 1
48 28
49 28
50 7
51 28
52 7
53 1
54 1
55 1
56 28
57 28
58 7
59 28
60 7
61 1
62 1
63 28
64 28
65 1
66 1
67 28
68 14
69 1
70 1
71 1
72 1
73 1
74 1
75 28
76 1
77 1
78 1
79 1
80 28
81 14
82 1
83 28
84 1
85 1
86 1
87 1
88 1
89 28
90 14
91 7
92 1
93 14
94 7
95 1
96 1
97 1
98 28
99 7
100 1
101 1
102 1
103 28
104 14
105 7
106 1
107 1
108 1
109 1
110 1
111 1
112 28
113 28
114 28
115 7
116 28
117 28
118 1
119 28
120 7
121 1
122 1
123 1
124 28
125 1
126 1
127 1
128 1
129 1
130 28
131 14
132 1
133 1
134 1
135 1
136 28
137 14
138 7
139 28
140 14
141 7
142 1
143 1
144 1
145 1
146 28
147 28
148 14
149 28
150 14
151 7
152 1
153 1
154 1
155 1
156 1
157 1
158 28
159 14
160 28
161 1
162 1
163 1
164 1
165 28
166 14
167 1
168 1
169 1
170 1
171 1
172 1
173 28
174 28
175 7
176 1
177 1
178 1
179 28
180 28
181 7
182 1
183 1
184 1
185 28
186 28
187 7
188 1
189 14
190 7
191 1
192 1
193 28
194 1
195 1
196 1
197 28
198 14
199 7
200 28
201 28
202 1
203 1
204 1
205 28
206 28
207 7
208 1
209 1
210 28
211 28
212 7
213 28
214 7
215 1
216 1
217 1
218 1
219 28
220 14
221 7
222 1
223 1
224 1
225 1
226 28
227 28
228 1
229 28
230 1
231 1
232 1
233 1
234 28
235 14
236 1
237 1
238 1
239 28
240 1
241 1
242 14
243 7
244 1
245 1
246 1
247 1
248 1
249 28
250 7
251 1
252 1
253 1
254 1
255 1
256 1
257 28
258 28
259 7
260 1
261 1
262 1
263 1
264 1
265 28
266 7
267 1
268 1
269 1
270 1
271 1
272 1
273 14
274 7
275 28
276 28
277 1
278 1
279 1
280 1
281 1
282 1
283 28
284 14
285 1
286 1
287 1
288 1
289 1
290 1
291 28
292 14
293 7
294 1
295 1
296 1
297 1
298 14
299 1
300 1
301 1
302 1
303 14
304 1
305 1
306 1
307 1
308 1
309 28
310 28
311 7
312 1
313 14
314 1
315 1
316 1
317 28
318 14
319 1
320 1
321 1
322 1
323 1
324 1
325 28
326 1
327 1
328 1
329 1
330 1
331 28
332 14
333 7
334 1
335 1
336 1
337 1
338 28
339 14
340 7
341 1
342 1
343 1
344 28
345 28
346 1
347 14
348 1
349 1
350 1
351 28
352 1
353 1
354 1
355 1
356 1
357 1
358 28
359 28
360 28
361 14
362 1
363 1
364 1
365 28
366 14
367 1
368 1
369 1
370 1
371 28
372 28
373 1
374 1
375 1
376 1
DEPOT_SECTION
1
-1
EOF