SDVRP instances/custom_instances/p02_8_split0.sol
375 -29 30 31 218 219 222 220 221 223 224 -33 334 335 352 350 355 351 353 88 89 228 230 229 232 231 -37 35 34 36 309 311 310 308 -48 301 299 298 297 300 281 277 279 275 276 278 280 274 74 77 -49 47 183 181 180 178 182 179 2 4 3 1 259 262 -56 57 55 157 158 154 152 192 195 193 194 -60 59 61 20 22 18 21 19 143 138 139 141 144 142 140 233 237 234 235 236 -62 65 64 63 323 319 321 316 320 317 318 322 207 205 -66 373 374 372 375 371 370 338 337 341 342 339 340 -70 73 71 67 72 68 69 200 202 199 203 201 209 210 -78 76 75 176 175 177 130 102 108 109 110 103 104 106 105 107 361 362 363 359 360 287 284 283 289 -79 80 81 43 44 46 45 42 41 325 324 329 326 327 328 -86 85 82 83 84 87 191 190 189 188 12 14 13 369 368 364 365 366 367 -91 90 94 96 92 93 95 16 17 15 285 288 282 286 -111 348 346 347 349 132 131 133 134 129 173 174 172 -122 120 121 119 118 124 125 127 123 126 128 250 254 255 252 249 248 251 253 243 242 247 244 245 241 246 -153 151 156 155 148 150 149 52 54 51 50 53 196 198 197 -162 159 160 163 161 101 97 98 99 100 226 227 225 -168 165 164 166 169 171 167 39 38 40 206 208 204 -170 28 27 24 26 23 25 114 113 112 272 273 -187 185 186 184 306 304 303 305 302 307 216 213 215 217 212 214 -211 135 137 136 58 264 265 268 269 267 270 312 315 -238 240 239 357 358 -260 261 258 263 256 257 147 145 146 271 266 313 314 -292 296 294 295 293 291 290 116 117 115 11 9 6 8 10 5 7 354 356 -333 336 331 330 32 332 344 345 343 0 





OBJ=
2475.936
BEST_KNOWN=
0.000